formal_verification/runs/model_eval_v7_100/case_013/run/model/design_smt2.smt2
; SMT-LIBv2 description generated by Yosys 0.64+40 (git sha1 90b906c4f, clang++ 18.1.8 -fPIC -O3)
; yosys-smt2-module vert_formal_wrap
(declare-sort |vert_formal_wrap_s| 0)
(declare-fun |vert_formal_wrap_is| (|vert_formal_wrap_s|) Bool)
; yosys-smt2-witness {"offset": 0, "path": ["$auto$async2sync.cc:107:execute$217"], "smtname": 0, "smtoffset": 0, "type": "reg", "width": 1}
(declare-fun |vert_formal_wrap#0| (|vert_formal_wrap_s|) (_ BitVec 1)) ; $auto$async2sync.cc:107:execute$217
; yosys-smt2-register $auto$async2sync.cc:107:execute$217 1
(define-fun |vert_formal_wrap_n $auto$async2sync.cc:107:execute$217| ((state |vert_formal_wrap_s|)) Bool (= ((_ extract 0 0) (|vert_formal_wrap#0| state)) #b1))
; yosys-smt2-witness {"offset": 0, "path": ["\\_started"], "smtname": 1, "smtoffset": 0, "type": "reg", "width": 1}
(declare-fun |vert_formal_wrap#1| (|vert_formal_wrap_s|) (_ BitVec 1)) ; \_started
; yosys-smt2-register _started 1
; yosys-smt2-wire _started 1
(define-fun |vert_formal_wrap_n _started| ((state |vert_formal_wrap_s|)) Bool (= ((_ extract 0 0) (|vert_formal_wrap#1| state)) #b1))
; yosys-smt2-wire auth_17 32
(define-fun |vert_formal_wrap_n auth_17| ((state |vert_formal_wrap_s|)) (_ BitVec 32) #b00000000000000000000000000000000)
; yosys-smt2-wire cfg_14 32
(define-fun |vert_formal_wrap_n cfg_14| ((state |vert_formal_wrap_s|)) (_ BitVec 32) #b00000000000000000000000000000000)
; yosys-smt2-wire cfg_5 32
(define-fun |vert_formal_wrap_n cfg_5| ((state |vert_formal_wrap_s|)) (_ BitVec 32) #b00000000000000000000000000000000)
; yosys-smt2-wire chip_10 32
(define-fun |vert_formal_wrap_n chip_10| ((state |vert_formal_wrap_s|)) (_ BitVec 32) #b00000000000000000000000000000000)
; yosys-smt2-wire chip_13 32
(define-fun |vert_formal_wrap_n chip_13| ((state |vert_formal_wrap_s|)) (_ BitVec 32) #b00000000000000000000000000000000)
; yosys-smt2-wire chip_7 32
(define-fun |vert_formal_wrap_n chip_7| ((state |vert_formal_wrap_s|)) (_ BitVec 32) #b00000000000000000000000000000000)
; yosys-smt2-wire clk_2 32
(define-fun |vert_formal_wrap_n clk_2| ((state |vert_formal_wrap_s|)) (_ BitVec 32) #b00000000000000000000000000000000)
; yosys-smt2-wire core_11 32
(define-fun |vert_formal_wrap_n core_11| ((state |vert_formal_wrap_s|)) (_ BitVec 32) #b00000000000000000000000000000000)
; yosys-smt2-wire core_14 32
(define-fun |vert_formal_wrap_n core_14| ((state |vert_formal_wrap_s|)) (_ BitVec 32) #b00000000000000000000000000000000)
; yosys-smt2-wire core_17 32
(define-fun |vert_formal_wrap_n core_17| ((state |vert_formal_wrap_s|)) (_ BitVec 32) #b00000000000000000000000000000000)
; yosys-smt2-wire core_8 32
(define-fun |vert_formal_wrap_n core_8| ((state |vert_formal_wrap_s|)) (_ BitVec 32) #b00000000000000000000000000000000)
; yosys-smt2-anyseq vert_formal_wrap#2 1 $auto$setundef.cc:350:execute$260
; yosys-smt2-witness {"offset": 0, "path": ["\\core_clock_8"], "smtname": 2, "smtoffset": 0, "type": "seq", "width": 1}
(declare-fun |vert_formal_wrap#2| (|vert_formal_wrap_s|) (_ BitVec 1)) ; \core_clock_8
; yosys-smt2-wire core_clock_8 1
; yosys-smt2-clock core_clock_8 posedge
(define-fun |vert_formal_wrap_n core_clock_8| ((state |vert_formal_wrap_s|)) Bool (= ((_ extract 0 0) (|vert_formal_wrap#2| state)) #b1))
; yosys-smt2-wire data_6 32
(define-fun |vert_formal_wrap_n data_6| ((state |vert_formal_wrap_s|)) (_ BitVec 32) #b00000000000000000000000000000000)
; yosys-smt2-wire err_3 32
(define-fun |vert_formal_wrap_n err_3| ((state |vert_formal_wrap_s|)) (_ BitVec 32) #b00000000000000000000000000000000)
; yosys-smt2-wire fsm_1 32
(define-fun |vert_formal_wrap_n fsm_1| ((state |vert_formal_wrap_s|)) (_ BitVec 32) #b00000000000000000000000000000000)
; yosys-smt2-wire h7e 32
(define-fun |vert_formal_wrap_n h7e| ((state |vert_formal_wrap_s|)) (_ BitVec 32) #b00000000000000000000000000000000)
; yosys-smt2-wire hw_3 32
(define-fun |vert_formal_wrap_n hw_3| ((state |vert_formal_wrap_s|)) (_ BitVec 32) #b00000000000000000000000000000000)
; yosys-smt2-wire hw_9 32
(define-fun |vert_formal_wrap_n hw_9| ((state |vert_formal_wrap_s|)) (_ BitVec 32) #b00000000000000000000000000000000)
; yosys-smt2-wire interrupt_enable_9 32
(define-fun |vert_formal_wrap_n interrupt_enable_9| ((state |vert_formal_wrap_s|)) (_ BitVec 32) #b00000000000000000000000000000000)
; yosys-smt2-wire reg_16 32
(define-fun |vert_formal_wrap_n reg_16| ((state |vert_formal_wrap_s|)) (_ BitVec 32) #b00000000000000000000000000000000)
; yosys-smt2-wire reg_3 32
(define-fun |vert_formal_wrap_n reg_3| ((state |vert_formal_wrap_s|)) (_ BitVec 32) #b00000000000000000000000000000000)
; yosys-smt2-wire rst 1
(define-fun |vert_formal_wrap_n rst| ((state |vert_formal_wrap_s|)) Bool false)
; yosys-smt2-wire rst_1 32
(define-fun |vert_formal_wrap_n rst_1| ((state |vert_formal_wrap_s|)) (_ BitVec 32) #b00000000000000000000000000000000)
; yosys-smt2-wire rst_16 32
(define-fun |vert_formal_wrap_n rst_16| ((state |vert_formal_wrap_s|)) (_ BitVec 32) #b00000000000000000000000000000000)
; yosys-smt2-wire rst_19 32
(define-fun |vert_formal_wrap_n rst_19| ((state |vert_formal_wrap_s|)) (_ BitVec 32) #b00000000000000000000000000000000)
; yosys-smt2-wire rx_9 32
(define-fun |vert_formal_wrap_n rx_9| ((state |vert_formal_wrap_s|)) (_ BitVec 32) #b00000000000000000000000000000000)
; yosys-smt2-wire sig_3 32
(define-fun |vert_formal_wrap_n sig_3| ((state |vert_formal_wrap_s|)) (_ BitVec 32) #b00000000000000000000000000000000)
; yosys-smt2-wire tx_6 32
(define-fun |vert_formal_wrap_n tx_6| ((state |vert_formal_wrap_s|)) (_ BitVec 32) #b00000000000000000000000000000000)
(define-fun |vert_formal_wrap#3| ((state |vert_formal_wrap_s|)) (_ BitVec 1) (bvnot (|vert_formal_wrap#2| state))) ; $auto$rtlil.cc:3255:Not$263
; yosys-smt2-assume 0 $auto$formalff.cc:987:execute$264
(define-fun |vert_formal_wrap_u 0| ((state |vert_formal_wrap_s|)) Bool (or (= ((_ extract 0 0) (|vert_formal_wrap#3| state)) #b1) (not true))) ; $auto$formalff.cc:987:execute$264
; yosys-smt2-assert 0 _witness_.check_assert_vert_formal_wrap_sv_112_15 vert_formal_wrap.sv:112.7-112.155
(define-fun |vert_formal_wrap_a 0| ((state |vert_formal_wrap_s|)) Bool (or true (not (= ((_ extract 0 0) (|vert_formal_wrap#0| state)) #b1)))) ; _witness_.check_assert_vert_formal_wrap_sv_112_15
; yosys-smt2-assert 1 _witness_.check_assert_vert_formal_wrap_sv_113_28 vert_formal_wrap.sv:113.5-113.198
(define-fun |vert_formal_wrap_a 1| ((state |vert_formal_wrap_s|)) Bool (or true (not (= ((_ extract 0 0) (|vert_formal_wrap#0| state)) #b1)))) ; _witness_.check_assert_vert_formal_wrap_sv_113_28
; yosys-smt2-assert 2 _witness_.check_assert_vert_formal_wrap_sv_114_45 vert_formal_wrap.sv:114.5-114.152
(define-fun |vert_formal_wrap_a 2| ((state |vert_formal_wrap_s|)) Bool (or true (not (= ((_ extract 0 0) (|vert_formal_wrap#0| state)) #b1)))) ; _witness_.check_assert_vert_formal_wrap_sv_114_45
; yosys-smt2-assert 3 _witness_.check_assert_vert_formal_wrap_sv_115_58 vert_formal_wrap.sv:115.5-115.167
(define-fun |vert_formal_wrap_a 3| ((state |vert_formal_wrap_s|)) Bool (or true (not (= ((_ extract 0 0) (|vert_formal_wrap#0| state)) #b1)))) ; _witness_.check_assert_vert_formal_wrap_sv_115_58
(define-fun |vert_formal_wrap#4| ((state |vert_formal_wrap_s|)) (_ BitVec 1) (ite (= ((_ extract 0 0) (|vert_formal_wrap#1| state)) #b1) #b1 #b0)) ; $assert$vert_formal_wrap.sv:112$15_EN
; yosys-smt2-assume 1 _witness_.check_assume_vert_formal_wrap_sv_111_13 vert_formal_wrap.sv:111.5-111.18
(define-fun |vert_formal_wrap_u 1| ((state |vert_formal_wrap_s|)) Bool (or true (not (= ((_ extract 0 0) (|vert_formal_wrap#4| state)) #b1)))) ; _witness_.check_assume_vert_formal_wrap_sv_111_13
(define-fun |vert_formal_wrap_a| ((state |vert_formal_wrap_s|)) Bool (and
  (|vert_formal_wrap_a 0| state)
  (|vert_formal_wrap_a 1| state)
  (|vert_formal_wrap_a 2| state)
  (|vert_formal_wrap_a 3| state)
))
(define-fun |vert_formal_wrap_u| ((state |vert_formal_wrap_s|)) Bool (and
  (|vert_formal_wrap_u 0| state)
  (|vert_formal_wrap_u 1| state)
))
(define-fun |vert_formal_wrap_i| ((state |vert_formal_wrap_s|)) Bool (and
  (= (= ((_ extract 0 0) (|vert_formal_wrap#0| state)) #b1) false) ; $auto$async2sync.cc:107:execute$217
  (= (= ((_ extract 0 0) (|vert_formal_wrap#1| state)) #b1) false) ; _started
))
(define-fun |vert_formal_wrap_h| ((state |vert_formal_wrap_s|)) Bool true)
(define-fun |vert_formal_wrap_t| ((state |vert_formal_wrap_s|) (next_state |vert_formal_wrap_s|)) Bool (and
  (= #b1 (|vert_formal_wrap#1| next_state)) ; $procdff$204 \_started
  (= (|vert_formal_wrap#4| state) (|vert_formal_wrap#0| next_state)) ; $auto$async2sync.cc:110:execute$219 $auto$async2sync.cc:107:execute$217
)) ; end of module vert_formal_wrap
; yosys-smt2-topmod vert_formal_wrap
; end of yosys output
